NAME : amz0433.1648535_147035.tour
COMMENT : Cost = 1648535_147035
COMMENT : Found by LKH-AMZ [Keld Helsgaun] Sun May 11 14:32:02 2025
COMMENT : TW viol.: 0 #: 0
TYPE : TOUR
DIMENSION : 173
TOUR_SECTION
90
120
12
20
45
112
35
27
148
54
28
163
78
19
136
128
96
142
88
77
85
158
43
91
72
141
111
93
17
55
157
159
150
127
95
133
138
40
110
92
113
61
161
109
69
149
84
152
169
64
107
131
47
145
94
134
106
170
147
41
16
75
58
86
37
52
59
63
124
66
33
122
125
164
14
3
62
81
76
153
13
21
168
121
67
44
53
144
36
2
162
34
65
123
105
71
114
87
60
118
5
99
108
4
100
6
80
31
102
9
101
171
97
173
30
154
8
83
10
18
117
24
51
126
46
156
151
26
73
70
11
49
29
89
68
129
166
22
139
48
7
160
56
32
135
165
167
1
104
103
39
57
50
119
155
130
143
82
132
42
137
38
23
115
146
116
15
79
25
74
172
140
98
-1
EOF
